p cnf 719
-13 -223
-14 -226
-15 -229
-16 -232
-17 -235
-18 -238
-19 -241
-20 -244
-21 -247
-22 -250
-23 -253
-24 -256
-25 257
-26 258
-27 259
-28 260
-29 -14
-29 -15
14 15 29
-30 -16
-30 -17
16 17 30
-31 -18
-31 -19
18 19 31
-32 -20
-32 -21
20 21 32
-33 -22
-33 -23
22 23 33
-34 -24
-34 -25
24 25 34
-35 -26
-35 -27
26 27 35
-36 29
-36 30
-29 -30 36
-37 31
-37 32
-31 -32 37
-38 33
-38 34
-33 -34 38
-39 -28
-39 35
28 -35 39
-40 36
-40 37
-36 -37 40
-41 38
-41 39
-38 -39 41
-42 40
-42 41
-40 -41 42
-43 -13
-43 14
13 -14 43
-44 13
-44 -14
-13 14 44
-45 -43
-45 -44
43 44 45
-46 13
-46 14
-13 -14 46
-47 -13
-47 -45
13 45 47
-48 13
-48 45
-13 -45 48
-49 -47
-49 -48
47 48 49
-50 13
-50 -45
-13 45 50
-51 -46
-51 -50
46 50 51
-52 -14
-52 15
14 -15 52
-53 14
-53 -15
-14 15 53
-54 -52
-54 -53
52 53 54
-55 14
-55 15
-14 -15 55
-56 51
-56 -54
-51 54 56
-57 -51
-57 54
51 -54 57
-58 -56
-58 -57
56 57 58
-59 -51
-59 -54
51 54 59
-60 -55
-60 -59
55 59 60
-61 -15
-61 16
15 -16 61
-62 15
-62 -16
-15 16 62
-63 -61
-63 -62
61 62 63
-64 15
-64 16
-15 -16 64
-65 60
-65 -63
-60 63 65
-66 -60
-66 63
60 -63 66
-67 -65
-67 -66
65 66 67
-68 -60
-68 -63
60 63 68
-69 -64
-69 -68
64 68 69
-70 -16
-70 17
16 -17 70
-71 16
-71 -17
-16 17 71
-72 -70
-72 -71
70 71 72
-73 16
-73 17
-16 -17 73
-74 69
-74 -72
-69 72 74
-75 -69
-75 72
69 -72 75
-76 -74
-76 -75
74 75 76
-77 -69
-77 -72
69 72 77
-78 -73
-78 -77
73 77 78
-79 -17
-79 18
17 -18 79
-80 17
-80 -18
-17 18 80
-81 -79
-81 -80
79 80 81
-82 17
-82 18
-17 -18 82
-83 78
-83 -81
-78 81 83
-84 -78
-84 81
78 -81 84
-85 -83
-85 -84
83 84 85
-86 -78
-86 -81
78 81 86
-87 -82
-87 -86
82 86 87
-88 -18
-88 19
18 -19 88
-89 18
-89 -19
-18 19 89
-90 -88
-90 -89
88 89 90
-91 18
-91 19
-18 -19 91
-92 87
-92 -90
-87 90 92
-93 -87
-93 90
87 -90 93
-94 -92
-94 -93
92 93 94
-95 -87
-95 -90
87 90 95
-96 -91
-96 -95
91 95 96
-97 -19
-97 20
19 -20 97
-98 19
-98 -20
-19 20 98
-99 -97
-99 -98
97 98 99
-100 19
-100 20
-19 -20 100
-101 96
-101 -99
-96 99 101
-102 -96
-102 99
96 -99 102
-103 -101
-103 -102
101 102 103
-104 -96
-104 -99
96 99 104
-105 -100
-105 -104
100 104 105
-106 -20
-106 21
20 -21 106
-107 20
-107 -21
-20 21 107
-108 -106
-108 -107
106 107 108
-109 20
-109 21
-20 -21 109
-110 105
-110 -108
-105 108 110
-111 -105
-111 108
105 -108 111
-112 -110
-112 -111
110 111 112
-113 -105
-113 -108
105 108 113
-114 -109
-114 -113
109 113 114
-115 -21
-115 22
21 -22 115
-116 21
-116 -22
-21 22 116
-117 -115
-117 -116
115 116 117
-118 21
-118 22
-21 -22 118
-119 114
-119 -117
-114 117 119
-120 -114
-120 117
114 -117 120
-121 -119
-121 -120
119 120 121
-122 -114
-122 -117
114 117 122
-123 -118
-123 -122
118 122 123
-124 -22
-124 23
22 -23 124
-125 22
-125 -23
-22 23 125
-126 -124
-126 -125
124 125 126
-127 22
-127 23
-22 -23 127
-128 123
-128 -126
-123 126 128
-129 -123
-129 126
123 -126 129
-130 -128
-130 -129
128 129 130
-131 -123
-131 -126
123 126 131
-132 -127
-132 -131
127 131 132
-133 -23
-133 24
23 -24 133
-134 23
-134 -24
-23 24 134
-135 -133
-135 -134
133 134 135
-136 23
-136 24
-23 -24 136
-137 132
-137 -135
-132 135 137
-138 -132
-138 135
132 -135 138
-139 -137
-139 -138
137 138 139
-140 -132
-140 -135
132 135 140
-141 -136
-141 -140
136 140 141
-142 -24
-142 25
24 -25 142
-143 24
-143 -25
-24 25 143
-144 -142
-144 -143
142 143 144
-145 24
-145 25
-24 -25 145
-146 141
-146 -144
-141 144 146
-147 -141
-147 144
141 -144 147
-148 -146
-148 -147
146 147 148
-149 -141
-149 -144
141 144 149
-150 -145
-150 -149
145 149 150
-151 -25
-151 26
25 -26 151
-152 25
-152 -26
-25 26 152
-153 -151
-153 -152
151 152 153
-154 25
-154 26
-25 -26 154
-155 150
-155 -153
-150 153 155
-156 -150
-156 153
150 -153 156
-157 -155
-157 -156
155 156 157
-158 -150
-158 -153
150 153 158
-159 -154
-159 -158
154 158 159
-160 -26
-160 27
26 -27 160
-161 26
-161 -27
-26 27 161
-162 -160
-162 -161
160 161 162
-163 26
-163 27
-26 -27 163
-164 159
-164 -162
-159 162 164
-165 -159
-165 162
159 -162 165
-166 -164
-166 -165
164 165 166
-167 -159
-167 -162
159 162 167
-168 -163
-168 -167
163 167 168
-169 -27
-169 28
27 -28 169
-170 27
-170 -28
-27 28 170
-171 -169
-171 -170
169 170 171
-172 27
-172 28
-27 -28 172
-173 168
-173 -171
-168 171 173
-174 -168
-174 171
168 -171 174
-175 -173
-175 -174
173 174 175
-176 -168
-176 -171
168 171 176
-177 -172
-177 -176
172 176 177
-178 13
-178 -49
-13 49 178
-179 -13
-179 15
13 -15 179
-180 -178
-180 -179
178 179 180
-181 13
-181 -58
-13 58 181
-182 -13
-182 16
13 -16 182
-183 -181
-183 -182
181 182 183
-184 13
-184 -67
-13 67 184
-185 -13
-185 17
13 -17 185
-186 -184
-186 -185
184 185 186
-187 13
-187 -76
-13 76 187
-188 -13
-188 18
13 -18 188
-189 -187
-189 -188
187 188 189
-190 13
-190 -85
-13 85 190
-191 -13
-191 19
13 -19 191
-192 -190
-192 -191
190 191 192
-193 13
-193 -94
-13 94 193
-194 -13
-194 20
13 -20 194
-195 -193
-195 -194
193 194 195
-196 13
-196 -103
-13 103 196
-197 -13
-197 21
13 -21 197
-198 -196
-198 -197
196 197 198
-199 13
-199 -112
-13 112 199
-200 -13
-200 22
13 -22 200
-201 -199
-201 -200
199 200 201
-202 13
-202 -121
-13 121 202
-203 -13
-203 23
13 -23 203
-204 -202
-204 -203
202 203 204
-205 13
-205 -130
-13 130 205
-206 -13
-206 24
13 -24 206
-207 -205
-207 -206
205 206 207
-208 13
-208 -139
-13 139 208
-209 -13
-209 25
13 -25 209
-210 -208
-210 -209
208 209 210
-211 13
-211 -148
-13 148 211
-212 -13
-212 26
13 -26 212
-213 -211
-213 -212
211 212 213
-214 13
-214 -157
-13 157 214
-215 -13
-215 27
13 -27 215
-216 -214
-216 -215
214 215 216
-217 13
-217 -166
-13 166 217
-218 -13
-218 28
13 -28 218
-219 -217
-219 -218
217 218 219
-220 13
-220 -175
-13 175 220
-221 1
-221 42
-1 -42 221
-222 -42
-222 43
42 -43 222
-223 -221
-223 -222
221 222 223
-224 2
-224 42
-2 -42 224
-225 -42
-225 -180
42 180 225
-226 -224
-226 -225
224 225 226
-227 3
-227 42
-3 -42 227
-228 -42
-228 -183
42 183 228
-229 -227
-229 -228
227 228 229
-230 4
-230 42
-4 -42 230
-231 -42
-231 -186
42 186 231
-232 -230
-232 -231
230 231 232
-233 5
-233 42
-5 -42 233
-234 -42
-234 -189
42 189 234
-235 -233
-235 -234
233 234 235
-236 6
-236 42
-6 -42 236
-237 -42
-237 -192
42 192 237
-238 -236
-238 -237
236 237 238
-239 7
-239 42
-7 -42 239
-240 -42
-240 -195
42 195 240
-241 -239
-241 -240
239 240 241
-242 8
-242 42
-8 -42 242
-243 -42
-243 -198
42 198 243
-244 -242
-244 -243
242 243 244
-245 9
-245 42
-9 -42 245
-246 -42
-246 -201
42 201 246
-247 -245
-247 -246
245 246 247
-248 10
-248 42
-10 -42 248
-249 -42
-249 -204
42 204 249
-250 -248
-250 -249
248 249 250
-251 11
-251 42
-11 -42 251
-252 -42
-252 -207
42 207 252
-253 -251
-253 -252
251 252 253
-254 12
-254 42
-12 -42 254
-255 -42
-255 -210
42 210 255
-256 -254
-256 -255
254 255 256
-257 -42
-257 -213
42 213 257
-258 -42
-258 -216
42 216 258
-259 -42
-259 -219
42 219 259
-260 -42
-260 220
42 -220 260
-261 -28
-261 177
28 -177 261
-262 13
-262 -261
-13 261 262
262
